
Log started (V11.0.0) Mon Apr 14 17:58:54 2008

Tried aggregator 1 time.
Reduced MIP has 540 rows, 20001 columns, and 40040 nonzeros.
Presolve time =    0.19 sec.
Clique table members: 500.
MIP emphasis: balance optimality and feasibility.
MIP search method: dynamic search.
Parallel mode: none, using 1 thread.
Root relaxation solution time =    0.69 sec.

        Nodes                                         Cuts/
   Node  Left     Objective  IInf  Best Integer     Best Node    ItCnt     Gap

*     0+    0                        26208.0000       36.1263     1052   99.86%
*     0+    0                           45.0000       36.1263     1052   19.72%
      0     0       37.0000    45       45.0000      Fract: 5     1066   17.78%
*     0+    0                           44.0000       37.0000     1066   15.91%
*     0+    0                           43.0000       37.0000     1066   13.95%
*     0+    0                           42.0000       37.0000     1066   11.90%
*     0+    0                           41.0000       37.0000     1066    9.76%

Repeating presolve.
Tried aggregator 1 time.
MIP Presolve eliminated 0 rows and 12022 columns.
Reduced MIP has 540 rows, 7979 columns, and 15996 nonzeros.
Tried aggregator 1 time.
Represolve time =    0.45 sec.
Clique table members: 959.
MIP emphasis: balance optimality and feasibility.
MIP search method: dynamic search.
Parallel mode: none, using 1 thread.
Root relaxation solution time =    0.19 sec.

        Nodes                                         Cuts/
   Node  Left     Objective  IInf  Best Integer     Best Node    ItCnt     Gap

      0     0       37.0000    70       41.0000       37.0000      859    9.76%
      0     2       37.0000    70       41.0000       37.0000      859    9.76%
*   100+   90                           40.0000       37.0000     6836    7.50%
    100    92       38.0000    58       40.0000       37.0000     6836    7.50%
    200   177       39.0000    35       40.0000       37.0000    14128    7.50%
    300   261       39.0000    51       40.0000       37.0000    19131    7.50%
    400   349       39.0000    46       40.0000       37.0000    24960    7.50%
    500   424       37.0000    68       40.0000       37.0000    33147    7.50%
*   506+  172                           39.0000       37.0000    33428    5.13%
*   509+  117                           38.0000       37.0000    35215    2.63%
    600   126       37.0000    60       38.0000       37.0000    44435    2.63%
    700   151    infeasible             38.0000       37.0000    55482    2.63%
    800   200       37.0000    58       38.0000       37.0000    72635    2.63%
    900   250       37.0000    63       38.0000       37.0000    89615    2.63%
   1000   302       37.0000    93       38.0000       37.0000   111747    2.63%
Elapsed time =  77.22 sec. (tree size =  3.26 MB, solutions = 9)
   1100   344    infeasible             38.0000       37.0000   148600    2.63%
*  1109+    1                           37.0000       37.0000   154998    0.00%

Cover cuts applied:  477
Mixed integer rounding cuts applied:  4
Zero-half cuts applied:  1
Gomory fractional cuts applied:  7

Solution pool: 10 solutions saved.

MIP - Integer optimal solution:  Objective = 3.7000000000e+001
Solution time =   99.84 sec.  Iterations = 154998  Nodes = 1109


Incumbent solution
Variable Name           Solution Value
Cmax                         37.000000
X_1_34                        1.000000
X_2_33                        1.000000
X_3_9                         1.000000
X_4_35                        1.000000
X_5_8                         1.000000
X_6_6                         1.000000
X_7_1                         1.000000
X_8_1                         1.000000
X_9_31                        1.000000
X_10_38                       1.000000
X_11_13                       1.000000
X_12_28                       1.000000
X_13_37                       1.000000
X_14_36                       1.000000
X_15_25                       1.000000
X_16_1                        1.000000
X_17_11                       1.000000
X_18_37                       1.000000
X_19_28                       1.000000
X_20_29                       1.000000
X_21_35                       1.000000
X_22_8                        1.000000
X_23_33                       1.000000
X_24_31                       1.000000
X_25_18                       1.000000
X_26_12                       1.000000
X_27_37                       1.000000
X_28_29                       1.000000
X_29_20                       1.000000
X_30_36                       1.000000
X_31_36                       1.000000
X_32_10                       1.000000
X_33_12                       1.000000
X_34_17                       1.000000
X_35_18                       1.000000
X_36_5                        1.000000
X_37_35                       1.000000
X_38_26                       1.000000
X_39_14                       1.000000
X_40_24                       1.000000
X_41_9                        1.000000
X_42_10                       1.000000
X_43_33                       1.000000
X_44_12                       1.000000
X_45_23                       1.000000
X_46_23                       1.000000
X_47_30                       1.000000
X_48_16                       1.000000
X_49_1                        1.000000
X_50_9                        1.000000
X_51_28                       1.000000
X_52_8                        1.000000
X_53_34                       1.000000
X_54_28                       1.000000
X_55_1                        1.000000
X_56_30                       1.000000
X_57_29                       1.000000
X_58_7                        1.000000
X_59_14                       1.000000
X_60_14                       1.000000
X_61_24                       1.000000
X_62_17                       1.000000
X_63_6                        1.000000
X_64_36                       1.000000
X_65_26                       1.000000
X_66_37                       1.000000
X_67_6                        1.000000
X_68_20                       1.000000
X_69_11                       1.000000
X_70_1                        1.000000
X_71_24                       1.000000
X_72_7                        1.000000
X_73_20                       1.000000
X_74_32                       1.000000
X_75_17                       1.000000
X_76_19                       1.000000
X_77_33                       1.000000
X_78_9                        1.000000
X_79_33                       1.000000
X_80_13                       1.000000
X_81_39                       1.000000
X_82_30                       1.000000
X_83_3                        1.000000
X_84_24                       1.000000
X_85_8                        1.000000
X_86_13                       1.000000
X_87_12                       1.000000
X_88_39                       1.000000
X_89_18                       1.000000
X_90_25                       1.000000
X_91_4                        1.000000
X_92_20                       1.000000
X_93_13                       1.000000
X_94_16                       1.000000
X_95_14                       1.000000
X_96_17                       1.000000
X_97_32                       1.000000
X_98_7                        1.000000
X_99_5                        1.000000
X_100_8                       1.000000
X_101_4                       1.000000
X_102_30                      1.000000
X_103_15                      1.000000
X_104_5                       1.000000
X_105_25                      1.000000
X_106_31                      1.000000
X_107_18                      1.000000
X_108_20                      1.000000
X_109_26                      1.000000
X_110_39                      1.000000
X_111_17                      1.000000
X_112_17                      1.000000
X_113_38                      1.000000
X_114_2                       1.000000
X_115_18                      1.000000
X_116_14                      1.000000
X_117_9                       1.000000
X_118_19                      1.000000
X_119_32                      1.000000
X_120_32                      1.000000
X_121_35                      1.000000
X_122_36                      1.000000
X_123_13                      1.000000
X_124_31                      1.000000
X_125_6                       1.000000
X_126_15                      1.000000
X_127_10                      1.000000
X_128_16                      1.000000
X_129_19                      1.000000
X_130_27                      1.000000
X_131_2                       1.000000
X_132_8                       1.000000
X_133_30                      1.000000
X_134_38                      1.000000
X_135_28                      1.000000
X_136_13                      1.000000
X_137_38                      1.000000
X_138_4                       1.000000
X_139_26                      1.000000
X_140_11                      1.000000
X_141_34                      1.000000
X_142_2                       1.000000
X_143_31                      1.000000
X_144_10                      1.000000
X_145_13                      1.000000
X_146_32                      1.000000
X_147_23                      1.000000
X_148_20                      1.000000
X_149_26                      1.000000
X_150_33                      1.000000
X_151_11                      1.000000
X_152_35                      1.000000
X_153_6                       1.000000
X_154_2                       1.000000
X_155_18                      1.000000
X_156_21                      1.000000
X_157_27                      1.000000
X_158_5                       1.000000
X_159_28                      1.000000
X_160_7                       1.000000
X_161_7                       1.000000
X_162_30                      1.000000
X_163_4                       1.000000
X_164_37                      1.000000
X_165_39                      1.000000
X_166_10                      1.000000
X_167_40                      1.000000
X_168_14                      1.000000
X_169_8                       1.000000
X_170_8                       1.000000
X_171_25                      1.000000
X_172_16                      1.000000
X_173_21                      1.000000
X_174_14                      1.000000
X_175_18                      1.000000
X_176_19                      1.000000
X_177_8                       1.000000
X_178_5                       1.000000
X_179_36                      1.000000
X_180_34                      1.000000
X_181_15                      1.000000
X_182_1                       1.000000
X_183_23                      1.000000
X_184_24                      1.000000
X_185_32                      1.000000
X_186_8                       1.000000
X_187_3                       1.000000
X_188_2                       1.000000
X_189_10                      1.000000
X_190_31                      1.000000
X_191_19                      1.000000
X_192_27                      1.000000
X_193_4                       1.000000
X_194_32                      1.000000
X_195_19                      1.000000
X_196_28                      1.000000
X_197_33                      1.000000
X_198_33                      1.000000
X_199_6                       1.000000
X_200_5                       1.000000
X_201_32                      1.000000
X_202_21                      1.000000
X_203_26                      1.000000
X_204_10                      1.000000
X_205_30                      1.000000
X_206_31                      1.000000
X_207_34                      1.000000
X_208_33                      1.000000
X_209_9                       1.000000
X_210_19                      1.000000
X_211_12                      1.000000
X_212_32                      1.000000
X_213_22                      1.000000
X_214_37                      1.000000
X_215_29                      1.000000
X_216_8                       1.000000
X_217_8                       1.000000
X_218_1                       1.000000
X_219_6                       1.000000
X_220_23                      1.000000
X_221_16                      1.000000
X_222_11                      1.000000
X_223_31                      1.000000
X_224_15                      1.000000
X_225_25                      1.000000
X_226_21                      1.000000
X_227_24                      1.000000
X_228_13                      1.000000
X_229_29                      1.000000
X_230_14                      1.000000
X_231_34                      1.000000
X_232_35                      1.000000
X_233_21                      1.000000
X_234_13                      1.000000
X_235_35                      1.000000
X_236_28                      1.000000
X_237_15                      1.000000
X_238_24                      1.000000
X_239_32                      1.000000
X_240_24                      1.000000
X_241_6                       1.000000
X_242_26                      1.000000
X_243_37                      1.000000
X_244_37                      1.000000
X_245_17                      1.000000
X_246_18                      1.000000
X_247_31                      1.000000
X_248_3                       1.000000
X_249_25                      1.000000
X_250_36                      1.000000
X_251_28                      1.000000
X_252_9                       1.000000
X_253_22                      1.000000
X_254_16                      1.000000
X_255_26                      1.000000
X_256_32                      1.000000
X_257_10                      1.000000
X_258_6                       1.000000
X_259_40                      1.000000
X_260_27                      1.000000
X_261_20                      1.000000
X_262_1                       1.000000
X_263_25                      1.000000
X_264_12                      1.000000
X_265_20                      1.000000
X_266_20                      1.000000
X_267_1                       1.000000
X_268_15                      1.000000
X_269_1                       1.000000
X_270_38                      1.000000
X_271_9                       1.000000
X_272_21                      1.000000
X_273_26                      1.000000
X_274_33                      1.000000
X_275_8                       1.000000
X_276_24                      1.000000
X_277_40                      1.000000
X_278_8                       1.000000
X_279_2                       1.000000
X_280_11                      1.000000
X_281_14                      1.000000
X_282_15                      1.000000
X_283_19                      1.000000
X_284_29                      1.000000
X_285_30                      1.000000
X_286_8                       1.000000
X_287_28                      1.000000
X_288_15                      1.000000
X_289_14                      1.000000
X_290_2                       1.000000
X_291_34                      1.000000
X_292_22                      1.000000
X_293_26                      1.000000
X_294_11                      1.000000
X_295_35                      1.000000
X_296_30                      1.000000
X_297_16                      1.000000
X_298_23                      1.000000
X_299_27                      1.000000
X_300_32                      1.000000
X_301_1                       1.000000
X_302_27                      1.000000
X_303_3                       1.000000
X_304_39                      1.000000
X_305_6                       1.000000
X_306_3                       1.000000
X_307_24                      1.000000
X_308_19                      1.000000
X_309_13                      1.000000
X_310_9                       1.000000
X_311_34                      1.000000
X_312_3                       1.000000
X_313_16                      1.000000
X_314_27                      1.000000
X_315_39                      1.000000
X_316_5                       1.000000
X_317_9                       1.000000
X_318_16                      1.000000
X_319_2                       1.000000
X_320_25                      1.000000
X_321_21                      1.000000
X_322_29                      1.000000
X_323_14                      1.000000
X_324_40                      1.000000
X_325_7                       1.000000
X_326_36                      1.000000
X_327_9                       1.000000
X_328_37                      1.000000
X_329_29                      1.000000
X_330_20                      1.000000
X_331_30                      1.000000
X_332_18                      1.000000
X_333_35                      1.000000
X_334_35                      1.000000
X_335_29                      1.000000
X_336_20                      1.000000
X_337_7                       1.000000
X_338_2                       1.000000
X_339_29                      1.000000
X_340_38                      1.000000
X_341_22                      1.000000
X_342_40                      1.000000
X_343_15                      1.000000
X_344_30                      1.000000
X_345_18                      1.000000
X_346_16                      1.000000
X_347_29                      1.000000
X_348_3                       1.000000
X_349_31                      1.000000
X_350_26                      1.000000
X_351_27                      1.000000
X_352_12                      1.000000
X_353_12                      1.000000
X_354_6                       1.000000
X_355_2                       1.000000
X_356_40                      1.000000
X_357_21                      1.000000
X_358_35                      1.000000
X_359_14                      1.000000
X_360_16                      1.000000
X_361_39                      1.000000
X_362_1                       1.000000
X_363_35                      1.000000
X_364_26                      1.000000
X_365_24                      1.000000
X_366_10                      1.000000
X_367_11                      1.000000
X_368_34                      1.000000
X_369_23                      1.000000
X_370_8                       1.000000
X_371_16                      1.000000
X_372_4                       1.000000
X_373_7                       1.000000
X_374_27                      1.000000
X_375_37                      1.000000
X_376_36                      1.000000
X_377_40                      1.000000
X_378_22                      1.000000
X_379_19                      1.000000
X_380_21                      1.000000
X_381_32                      1.000000
X_382_10                      1.000000
X_383_33                      1.000000
X_384_12                      1.000000
X_385_19                      1.000000
X_386_35                      1.000000
X_387_34                      1.000000
X_388_37                      1.000000
X_389_27                      1.000000
X_390_14                      1.000000
X_391_17                      1.000000
X_392_28                      1.000000
X_393_4                       1.000000
X_394_11                      1.000000
X_395_34                      1.000000
X_396_7                       1.000000
X_397_2                       1.000000
X_398_22                      1.000000
X_399_7                       1.000000
X_400_9                       1.000000
X_401_12                      1.000000
X_402_6                       1.000000
X_403_11                      1.000000
X_404_6                       1.000000
X_405_11                      1.000000
X_406_29                      1.000000
X_407_11                      1.000000
X_408_38                      1.000000
X_409_12                      1.000000
X_410_5                       1.000000
X_411_28                      1.000000
X_412_36                      1.000000
X_413_10                      1.000000
X_414_22                      1.000000
X_415_15                      1.000000
X_416_6                       1.000000
X_417_29                      1.000000
X_418_28                      1.000000
X_419_32                      1.000000
X_420_5                       1.000000
X_421_8                       1.000000
X_422_20                      1.000000
X_423_11                      1.000000
X_424_11                      1.000000
X_425_3                       1.000000
X_426_23                      1.000000
X_427_12                      1.000000
X_428_5                       1.000000
X_429_39                      1.000000
X_430_34                      1.000000
X_431_37                      1.000000
X_432_26                      1.000000
X_433_12                      1.000000
X_434_10                      1.000000
X_435_29                      1.000000
X_436_3                       1.000000
X_437_38                      1.000000
X_438_8                       1.000000
X_439_23                      1.000000
X_440_25                      1.000000
X_441_35                      1.000000
X_442_27                      1.000000
X_443_21                      1.000000
X_444_5                       1.000000
X_445_17                      1.000000
X_446_20                      1.000000
X_447_40                      1.000000
X_448_4                       1.000000
X_449_37                      1.000000
X_450_4                       1.000000
X_451_12                      1.000000
X_452_34                      1.000000
X_453_36                      1.000000
X_454_16                      1.000000
X_455_24                      1.000000
X_456_30                      1.000000
X_457_19                      1.000000
X_458_1                       1.000000
X_459_5                       1.000000
X_460_26                      1.000000
X_461_34                      1.000000
X_462_24                      1.000000
X_463_25                      1.000000
X_464_26                      1.000000
X_465_13                      1.000000
X_466_40                      1.000000
X_467_25                      1.000000
X_468_22                      1.000000
X_469_39                      1.000000
X_470_36                      1.000000
X_471_34                      1.000000
X_472_34                      1.000000
X_473_16                      1.000000
X_474_9                       1.000000
X_475_31                      1.000000
X_476_37                      1.000000
X_477_11                      1.000000
X_478_22                      1.000000
X_479_1                       1.000000
X_480_1                       1.000000
X_481_38                      1.000000
X_482_39                      1.000000
X_483_21                      1.000000
X_484_32                      1.000000
X_485_39                      1.000000
X_486_15                      1.000000
X_487_28                      1.000000
X_488_21                      1.000000
X_489_5                       1.000000
X_490_22                      1.000000
X_491_23                      1.000000
X_492_38                      1.000000
X_493_15                      1.000000
X_494_9                       1.000000
X_495_2                       1.000000
X_496_16                      1.000000
X_497_18                      1.000000
X_498_37                      1.000000
X_499_34                      1.000000
X_500_31                      1.000000
All other variables in the range 1-20001 are 0.
